letting maxWeight=96
letting values=[41, 48, 54, 33, 24, 30, 50, 35, 50, 23, 3, 48, 19, 15, 18, 39, 1, 24, 41, 16, 17, 27, 50, 37, 52, 11, 36, 34, 38, 33, 9, 19, 3, 44, 45, 2, 7, 18, 22, 30, 43, 29, 3, 39, 1, 51, 13, 52, 32, 12, 2, 10, 6, 44, 23, 33, 7, 44, 45, 31, 41, 41, 32, 23, 2, 34, 7, 42, 27, 26]
letting weights=[21, 20, 22, 13, 2, 8, 12, 19, 12, 16, 11, 21, 4, 20, 10, 13, 7, 16, 18, 1, 12, 1, 8, 19, 19, 10, 16, 4, 12, 21, 10, 18, 2, 10, 6, 9, 9, 4, 11, 19, 19, 18, 9, 9, 15, 8, 13, 14, 6, 7, 17, 3, 11, 11, 8, 15, 12, 23, 12, 22, 23, 22, 3, 18, 16, 4, 2, 18, 1, 5]
